0 16 0
5 29 2
10 0 6
16 5 1
17 26 4
26 10 5
29 17 3
next
0 7 13 5
0 34 9 4
0 46 6 2
0 47 1 3
0 49 6 2
0 58 21 3
0 60 23 1
0 75 28 3
0 78 25 3
0 86 20 0
0 87 2 1
0 95 22 3
0 96 12 0
0 100 15 3
1 7 4 5
1 10 14 6
1 34 7 4
1 35 24 4
1 43 19 5
1 46 6 2
1 49 6 2
1 58 18 3
1 60 23 1
1 75 11 3
1 77 3 4
1 78 27 3
1 87 2 1
1 94 30 0
1 95 8 3
1 96 28 0
